
  17    4
  10   10   10   10

   0   0   0   0   0   5 2 4 5 7 8 
  10  10  10  10  10   1 3 
   3  10  10  10  10   3 10 9 6 
   5  10  10  10  10   2 10 6 
   3  10  10  10  10   4 16 12 11 9 
   5  10  10  10  10   4 16 15 12 11 
   9  10  10  10  10   3 16 15 11 
   7  10  10  10  10   2 12 11 
   4  10  10  10  10   2 15 14 
   5  10  10  10  10   1 13 
  10  10  10  10  10   1 14 
  10  10  10  10  10   1 14 
  10  10  10  10  10   1 14 
   7  10  10  10  10   1 17
   3  10  10  10  10   1 17
   2  10  10  10  10   1 17
   0   0   0   0   0   0 
